70
1 0 13
2 0 30
2 1 26
3 0 23
3 1 20
3 2 1
4 0 27
4 1 32
4 2 12
4 3 36
5 0 1
5 1 14
5 2 20
5 3 17
5 4 5
6 0 14
6 1 12
6 2 9
6 3 33
6 4 18
6 5 22
7 0 7
7 1 28
7 2 16
7 3 12
7 4 22
7 5 8
7 6 28
8 0 21
8 1 24
8 2 26
8 3 2
8 4 15
8 5 35
8 6 27
8 7 37
9 0 13
9 1 8
9 2 22
9 3 23
9 4 11
9 5 15
9 6 20
9 7 19
9 8 11
10 0 39
10 1 38
10 2 21
10 3 19
10 4 29
10 5 10
10 6 14
10 7 17
10 8 14
10 9 15
11 0 26
11 1 40
11 2 1
11 3 27
11 4 32
11 5 21
11 6 30
11 7 31
11 8 20
11 9 25
11 10 38
12 0 28
12 1 19
12 2 3
12 3 31
12 4 22
12 5 5
12 6 36
12 7 17
12 8 32
12 9 7
12 10 3
12 11 15
13 0 4
13 1 8
13 2 27
13 3 30
13 4 19
13 5 6
13 6 28
13 7 6
13 8 28
13 9 14
13 10 14
13 11 6
13 12 3
14 0 34
14 1 37
14 2 37
14 3 1
14 4 33
14 5 20
14 6 23
14 7 32
14 8 18
14 9 33
14 10 24
14 11 2
14 12 18
14 13 20
15 0 11
15 1 38
15 2 22
15 3 38
15 4 30
15 5 20
15 6 37
15 7 11
15 8 18
15 9 19
15 10 37
15 11 13
15 12 1
15 13 34
15 14 15
16 0 7
16 1 20
16 2 23
16 3 14
16 4 23
16 5 6
16 6 24
16 7 10
16 8 40
16 9 28
16 10 32
16 11 12
16 12 26
16 13 21
16 14 12
16 15 14
17 0 3
17 1 10
17 2 10
17 3 39
17 4 30
17 5 26
17 6 37
17 7 24
17 8 19
17 9 33
17 10 36
17 11 6
17 12 25
17 13 5
17 14 25
17 15 18
17 16 13
18 0 17
18 1 19
18 2 8
18 3 13
18 4 13
18 5 12
18 6 11
18 7 10
18 8 29
18 9 5
18 10 2
18 11 9
18 12 30
18 13 9
18 14 20
18 15 40
18 16 38
18 17 35
19 0 18
19 1 20
19 2 10
19 3 26
19 4 18
19 5 2
19 6 40
19 7 32
19 8 34
19 9 34
19 10 19
19 11 15
19 12 7
19 13 13
19 14 3
19 15 32
19 16 35
19 17 25
19 18 21
20 0 11
20 1 38
20 2 11
20 3 29
20 4 12
20 5 12
20 6 22
20 7 36
20 8 38
20 9 20
20 10 27
20 11 17
20 12 26
20 13 20
20 14 10
20 15 12
20 16 6
20 17 12
20 18 36
20 19 12
21 0 7
21 1 30
21 2 34
21 3 1
21 4 18
21 5 13
21 6 4
21 7 27
21 8 1
21 9 26
21 10 13
21 11 6
21 12 27
21 13 37
21 14 22
21 15 25
21 16 29
21 17 17
21 18 22
21 19 5
21 20 18
22 0 11
22 1 4
22 2 13
22 3 23
22 4 25
22 5 28
22 6 23
22 7 26
22 8 28
22 9 32
22 10 19
22 11 27
22 12 19
22 13 35
22 14 40
22 15 39
22 16 35
22 17 19
22 18 25
22 19 26
22 20 27
22 21 3
23 0 39
23 1 13
23 2 27
23 3 30
23 4 11
23 5 10
23 6 32
23 7 33
23 8 15
23 9 15
23 10 39
23 11 26
23 12 1
23 13 24
23 14 8
23 15 32
23 16 29
23 17 37
23 18 4
23 19 37
23 20 32
23 21 11
23 22 26
24 0 39
24 1 32
24 2 17
24 3 11
24 4 40
24 5 24
24 6 36
24 7 7
24 8 10
24 9 18
24 10 12
24 11 25
24 12 13
24 13 25
24 14 33
24 15 34
24 16 8
24 17 18
24 18 21
24 19 12
24 20 27
24 21 36
24 22 7
24 23 32
25 0 16
25 1 27
25 2 33
25 3 37
25 4 28
25 5 10
25 6 35
25 7 2
25 8 37
25 9 17
25 10 13
25 11 19
25 12 19
25 13 34
25 14 18
25 15 23
25 16 18
25 17 29
25 18 27
25 19 13
25 20 9
25 21 38
25 22 12
25 23 12
25 24 18
26 0 8
26 1 22
26 2 23
26 3 5
26 4 11
26 5 38
26 6 12
26 7 39
26 8 28
26 9 2
26 10 35
26 11 11
26 12 25
26 13 3
26 14 34
26 15 27
26 16 16
26 17 39
26 18 10
26 19 28
26 20 8
26 21 36
26 22 28
26 23 6
26 24 37
26 25 4
27 0 23
27 1 21
27 2 39
27 3 34
27 4 10
27 5 36
27 6 28
27 7 29
27 8 39
27 9 12
27 10 32
27 11 21
27 12 39
27 13 10
27 14 20
27 15 27
27 16 37
27 17 11
27 18 33
27 19 26
27 20 27
27 21 3
27 22 4
27 23 36
27 24 8
27 25 2
27 26 13
28 0 23
28 1 35
28 2 19
28 3 7
28 4 22
28 5 24
28 6 3
28 7 38
28 8 33
28 9 16
28 10 6
28 11 15
28 12 16
28 13 25
28 14 14
28 15 18
28 16 36
28 17 31
28 18 35
28 19 18
28 20 37
28 21 23
28 22 18
28 23 33
28 24 15
28 25 31
28 26 25
28 27 33
29 0 31
29 1 38
29 2 10
29 3 33
29 4 9
29 5 7
29 6 29
29 7 36
29 8 37
29 9 9
29 10 5
29 11 36
29 12 13
29 13 7
29 14 26
29 15 7
29 16 33
29 17 29
29 18 6
29 19 31
29 20 13
29 21 14
29 22 40
29 23 31
29 24 29
29 25 40
29 26 11
29 27 39
29 28 24
30 0 11
30 1 40
30 2 37
30 3 35
30 4 16
30 5 34
30 6 17
30 7 19
30 8 16
30 9 5
30 10 35
30 11 25
30 12 40
30 13 4
30 14 32
30 15 34
30 16 33
30 17 19
30 18 28
30 19 31
30 20 32
30 21 29
30 22 38
30 23 36
30 24 13
30 25 1
30 26 25
30 27 20
30 28 7
30 29 28
31 0 4
31 1 36
31 2 9
31 3 28
31 4 2
31 5 32
31 6 28
31 7 4
31 8 5
31 9 29
31 10 20
31 11 17
31 12 17
31 13 17
31 14 15
31 15 5
31 16 26
31 17 1
31 18 30
31 19 34
31 20 16
31 21 4
31 22 32
31 23 3
31 24 3
31 25 4
31 26 15
31 27 10
31 28 10
31 29 27
31 30 2
32 0 28
32 1 27
32 2 32
32 3 31
32 4 35
32 5 11
32 6 6
32 7 26
32 8 16
32 9 15
32 10 24
32 11 19
32 12 22
32 13 21
32 14 35
32 15 34
32 16 28
32 17 25
32 18 4
32 19 17
32 20 35
32 21 29
32 22 23
32 23 10
32 24 30
32 25 9
32 26 28
32 27 17
32 28 17
32 29 8
32 30 16
32 31 29
33 0 1
33 1 38
33 2 13
33 3 14
33 4 31
33 5 7
33 6 7
33 7 23
33 8 4
33 9 6
33 10 30
33 11 26
33 12 14
33 13 3
33 14 6
33 15 5
33 16 18
33 17 14
33 18 33
33 19 31
33 20 7
33 21 10
33 22 12
33 23 18
33 24 21
33 25 25
33 26 5
33 27 32
33 28 23
33 29 19
33 30 11
33 31 22
33 32 33
34 0 6
34 1 29
34 2 33
34 3 21
34 4 4
34 5 15
34 6 28
34 7 4
34 8 10
34 9 18
34 10 34
34 11 4
34 12 39
34 13 24
34 14 10
34 15 29
34 16 37
34 17 37
34 18 6
34 19 22
34 20 33
34 21 26
34 22 22
34 23 3
34 24 34
34 25 14
34 26 12
34 27 20
34 28 25
34 29 34
34 30 13
34 31 10
34 32 22
34 33 7
35 0 27
35 1 32
35 2 10
35 3 11
35 4 9
35 5 19
35 6 11
35 7 9
35 8 21
35 9 13
35 10 9
35 11 19
35 12 34
35 13 7
35 14 7
35 15 33
35 16 26
35 17 25
35 18 32
35 19 26
35 20 33
35 21 25
35 22 37
35 23 17
35 24 21
35 25 21
35 26 38
35 27 17
35 28 19
35 29 8
35 30 30
35 31 13
35 32 3
35 33 14
35 34 34
36 0 37
36 1 20
36 2 9
36 3 38
36 4 23
36 5 35
36 6 12
36 7 9
36 8 20
36 9 7
36 10 22
36 11 28
36 12 13
36 13 5
36 14 22
36 15 5
36 16 33
36 17 30
36 18 22
36 19 20
36 20 8
36 21 35
36 22 5
36 23 28
36 24 25
36 25 7
36 26 35
36 27 31
36 28 39
36 29 4
36 30 32
36 31 15
36 32 28
36 33 5
36 34 34
36 35 8
37 0 24
37 1 2
37 2 35
37 3 32
37 4 25
37 5 12
37 6 11
37 7 7
37 8 10
37 9 17
37 10 22
37 11 19
37 12 32
37 13 4
37 14 5
37 15 1
37 16 37
37 17 32
37 18 22
37 19 5
37 20 4
37 21 18
37 22 24
37 23 6
37 24 34
37 25 37
37 26 10
37 27 22
37 28 35
37 29 6
37 30 40
37 31 11
37 32 24
37 33 13
37 34 38
37 35 17
37 36 25
38 0 13
38 1 4
38 2 16
38 3 3
38 4 21
38 5 30
38 6 20
38 7 38
38 8 10
38 9 3
38 10 35
38 11 37
38 12 35
38 13 24
38 14 27
38 15 7
38 16 19
38 17 10
38 18 9
38 19 4
38 20 36
38 21 37
38 22 27
38 23 13
38 24 12
38 25 9
38 26 39
38 27 34
38 28 6
38 29 10
38 30 16
38 31 30
38 32 20
38 33 31
38 34 19
38 35 22
38 36 28
38 37 25
39 0 37
39 1 40
39 2 9
39 3 15
39 4 23
39 5 10
39 6 2
39 7 5
39 8 10
39 9 17
39 10 23
39 11 4
39 12 7
39 13 3
39 14 30
39 15 32
39 16 28
39 17 5
39 18 39
39 19 20
39 20 31
39 21 6
39 22 19
39 23 38
39 24 37
39 25 16
39 26 12
39 27 30
39 28 39
39 29 19
39 30 28
39 31 34
39 32 27
39 33 32
39 34 38
39 35 30
39 36 34
39 37 16
39 38 29
40 0 31
40 1 8
40 2 20
40 3 21
40 4 16
40 5 10
40 6 36
40 7 29
40 8 14
40 9 14
40 10 9
40 11 23
40 12 39
40 13 39
40 14 21
40 15 31
40 16 14
40 17 13
40 18 31
40 19 30
40 20 30
40 21 4
40 22 11
40 23 32
40 24 33
40 25 3
40 26 35
40 27 10
40 28 17
40 29 35
40 30 35
40 31 40
40 32 24
40 33 23
40 34 23
40 35 23
40 36 1
40 37 35
40 38 6
40 39 31
41 0 3
41 1 13
41 2 7
41 3 19
41 4 25
41 5 36
41 6 36
41 7 7
41 8 19
41 9 6
41 10 23
41 11 17
41 12 18
41 13 32
41 14 25
41 15 4
41 16 16
41 17 3
41 18 6
41 19 7
41 20 30
41 21 13
41 22 36
41 23 26
41 24 33
41 25 11
41 26 9
41 27 27
41 28 7
41 29 35
41 30 23
41 31 24
41 32 13
41 33 21
41 34 27
41 35 15
41 36 36
41 37 38
41 38 29
41 39 31
41 40 32
42 0 18
42 1 21
42 2 29
42 3 9
42 4 1
42 5 8
42 6 23
42 7 19
42 8 8
42 9 24
42 10 2
42 11 36
42 12 29
42 13 1
42 14 22
42 15 13
42 16 8
42 17 35
42 18 26
42 19 39
42 20 21
42 21 27
42 22 1
42 23 31
42 24 2
42 25 14
42 26 12
42 27 12
42 28 36
42 29 24
42 30 27
42 31 34
42 32 31
42 33 10
42 34 36
42 35 26
42 36 29
42 37 9
42 38 12
42 39 29
42 40 38
42 41 32
43 0 27
43 1 19
43 2 14
43 3 36
43 4 24
43 5 18
43 6 14
43 7 25
43 8 13
43 9 7
43 10 34
43 11 13
43 12 36
43 13 8
43 14 19
43 15 10
43 16 33
43 17 6
43 18 39
43 19 2
43 20 5
43 21 37
43 22 15
43 23 27
43 24 15
43 25 11
43 26 8
43 27 9
43 28 22
43 29 9
43 30 32
43 31 31
43 32 18
43 33 5
43 34 24
43 35 31
43 36 38
43 37 22
43 38 5
43 39 30
43 40 26
43 41 31
43 42 25
44 0 24
44 1 19
44 2 5
44 3 38
44 4 27
44 5 12
44 6 8
44 7 38
44 8 1
44 9 30
44 10 27
44 11 20
44 12 36
44 13 28
44 14 10
44 15 4
44 16 25
44 17 40
44 18 1
44 19 14
44 20 19
44 21 25
44 22 15
44 23 40
44 24 11
44 25 10
44 26 31
44 27 11
44 28 20
44 29 38
44 30 30
44 31 27
44 32 8
44 33 16
44 34 16
44 35 17
44 36 29
44 37 32
44 38 12
44 39 18
44 40 27
44 41 28
44 42 31
44 43 13
45 0 29
45 1 38
45 2 39
45 3 25
45 4 18
45 5 35
45 6 40
45 7 25
45 8 21
45 9 11
45 10 1
45 11 20
45 12 38
45 13 25
45 14 22
45 15 11
45 16 27
45 17 38
45 18 23
45 19 35
45 20 14
45 21 38
45 22 39
45 23 27
45 24 38
45 25 21
45 26 39
45 27 39
45 28 38
45 29 29
45 30 26
45 31 12
45 32 15
45 33 25
45 34 30
45 35 28
45 36 36
45 37 2
45 38 12
45 39 2
45 40 35
45 41 26
45 42 3
45 43 20
45 44 3
46 0 1
46 1 16
46 2 12
46 3 13
46 4 3
46 5 1
46 6 20
46 7 9
46 8 9
46 9 16
46 10 25
46 11 3
46 12 32
46 13 10
46 14 5
46 15 12
46 16 17
46 17 2
46 18 7
46 19 4
46 20 1
46 21 17
46 22 5
46 23 5
46 24 12
46 25 5
46 26 30
46 27 17
46 28 8
46 29 7
46 30 3
46 31 8
46 32 10
46 33 19
46 34 20
46 35 13
46 36 19
46 37 29
46 38 8
46 39 31
46 40 6
46 41 28
46 42 15
46 43 24
46 44 9
46 45 6
47 0 30
47 1 11
47 2 14
47 3 30
47 4 10
47 5 34
47 6 11
47 7 4
47 8 30
47 9 30
47 10 14
47 11 14
47 12 24
47 13 29
47 14 32
47 15 15
47 16 5
47 17 30
47 18 6
47 19 13
47 20 3
47 21 6
47 22 11
47 23 35
47 24 10
47 25 12
47 26 35
47 27 32
47 28 16
47 29 21
47 30 40
47 31 15
47 32 4
47 33 9
47 34 7
47 35 8
47 36 18
47 37 40
47 38 20
47 39 29
47 40 24
47 41 27
47 42 7
47 43 8
47 44 20
47 45 24
47 46 36
48 0 30
48 1 21
48 2 36
48 3 30
48 4 19
48 5 20
48 6 17
48 7 28
48 8 35
48 9 28
48 10 4
48 11 26
48 12 12
48 13 29
48 14 37
48 15 33
48 16 3
48 17 39
48 18 37
48 19 36
48 20 5
48 21 23
48 22 35
48 23 2
48 24 31
48 25 1
48 26 24
48 27 40
48 28 34
48 29 16
48 30 30
48 31 24
48 32 6
48 33 10
48 34 39
48 35 21
48 36 3
48 37 25
48 38 26
48 39 8
48 40 38
48 41 21
48 42 10
48 43 9
48 44 7
48 45 3
48 46 24
48 47 11
49 0 15
49 1 33
49 2 9
49 3 36
49 4 13
49 5 14
49 6 21
49 7 22
49 8 39
49 9 35
49 10 29
49 11 22
49 12 6
49 13 21
49 14 21
49 15 37
49 16 26
49 17 25
49 18 12
49 19 14
49 20 25
49 21 36
49 22 32
49 23 27
49 24 36
49 25 31
49 26 2
49 27 35
49 28 13
49 29 39
49 30 32
49 31 34
49 32 4
49 33 3
49 34 32
49 35 6
49 36 5
49 37 27
49 38 13
49 39 7
49 40 33
49 41 27
49 42 19
49 43 8
49 44 11
49 45 22
49 46 23
49 47 37
49 48 17
50 0 15
50 1 30
50 2 33
50 3 22
50 4 17
50 5 3
50 6 23
50 7 27
50 8 28
50 9 34
50 10 22
50 11 12
50 12 1
50 13 37
50 14 8
50 15 15
50 16 2
50 17 26
50 18 18
50 19 10
50 20 28
50 21 26
50 22 27
50 23 14
50 24 30
50 25 1
50 26 2
50 27 11
50 28 29
50 29 13
50 30 33
50 31 12
50 32 32
50 33 17
50 34 17
50 35 38
50 36 10
50 37 16
50 38 2
50 39 1
50 40 39
50 41 26
50 42 5
50 43 36
50 44 35
50 45 40
50 46 6
50 47 14
50 48 15
50 49 36
51 0 16
51 1 13
51 2 2
51 3 20
51 4 27
51 5 29
51 6 15
51 7 4
51 8 8
51 9 37
51 10 39
51 11 34
51 12 7
51 13 17
51 14 1
51 15 14
51 16 20
51 17 6
51 18 14
51 19 12
51 20 6
51 21 8
51 22 32
51 23 30
51 24 18
51 25 37
51 26 24
51 27 19
51 28 1
51 29 33
51 30 37
51 31 15
51 32 30
51 33 22
51 34 39
51 35 7
51 36 28
51 37 38
51 38 39
51 39 20
51 40 35
51 41 6
51 42 9
51 43 17
51 44 1
51 45 35
51 46 1
51 47 3
51 48 27
51 49 18
51 50 39
52 0 13
52 1 38
52 2 24
52 3 3
52 4 17
52 5 24
52 6 29
52 7 27
52 8 35
52 9 27
52 10 36
52 11 3
52 12 12
52 13 16
52 14 17
52 15 18
52 16 38
52 17 17
52 18 20
52 19 9
52 20 35
52 21 20
52 22 37
52 23 15
52 24 9
52 25 4
52 26 17
52 27 35
52 28 14
52 29 29
52 30 28
52 31 26
52 32 33
52 33 29
52 34 18
52 35 23
52 36 23
52 37 37
52 38 37
52 39 9
52 40 16
52 41 28
52 42 25
52 43 35
52 44 35
52 45 27
52 46 15
52 47 14
52 48 30
52 49 30
52 50 38
52 51 11
53 0 10
53 1 37
53 2 28
53 3 21
53 4 36
53 5 37
53 6 4
53 7 35
53 8 33
53 9 1
53 10 1
53 11 17
53 12 26
53 13 5
53 14 15
53 15 3
53 16 13
53 17 14
53 18 3
53 19 7
53 20 24
53 21 23
53 22 28
53 23 6
53 24 2
53 25 16
53 26 16
53 27 27
53 28 28
53 29 2
53 30 27
53 31 33
53 32 34
53 33 24
53 34 10
53 35 7
53 36 13
53 37 39
53 38 35
53 39 27
53 40 26
53 41 17
53 42 19
53 43 39
53 44 29
53 45 9
53 46 6
53 47 21
53 48 32
53 49 14
53 50 11
53 51 14
53 52 3
54 0 33
54 1 2
54 2 28
54 3 3
54 4 5
54 5 29
54 6 24
54 7 37
54 8 9
54 9 20
54 10 14
54 11 23
54 12 27
54 13 6
54 14 13
54 15 8
54 16 34
54 17 14
54 18 20
54 19 5
54 20 25
54 21 25
54 22 33
54 23 29
54 24 34
54 25 11
54 26 8
54 27 27
54 28 12
54 29 33
54 30 29
54 31 2
54 32 6
54 33 23
54 34 17
54 35 11
54 36 8
54 37 17
54 38 30
54 39 2
54 40 40
54 41 13
54 42 9
54 43 31
54 44 8
54 45 26
54 46 27
54 47 29
54 48 18
54 49 16
54 50 10
54 51 16
54 52 10
54 53 9
55 0 17
55 1 29
55 2 24
55 3 29
55 4 34
55 5 36
55 6 19
55 7 38
55 8 19
55 9 5
55 10 28
55 11 30
55 12 22
55 13 22
55 14 39
55 15 7
55 16 8
55 17 2
55 18 36
55 19 33
55 20 34
55 21 36
55 22 11
55 23 3
55 24 27
55 25 11
55 26 2
55 27 29
55 28 27
55 29 4
55 30 37
55 31 40
55 32 13
55 33 35
55 34 40
55 35 21
55 36 34
55 37 11
55 38 10
55 39 16
55 40 8
55 41 34
55 42 39
55 43 11
55 44 25
55 45 6
55 46 40
55 47 33
55 48 32
55 49 28
55 50 22
55 51 1
55 52 37
55 53 2
55 54 5
56 0 29
56 1 34
56 2 1
56 3 24
56 4 27
56 5 21
56 6 2
56 7 25
56 8 6
56 9 17
56 10 3
56 11 32
56 12 18
56 13 18
56 14 7
56 15 15
56 16 3
56 17 2
56 18 18
56 19 12
56 20 31
56 21 36
56 22 13
56 23 5
56 24 4
56 25 9
56 26 15
56 27 32
56 28 3
56 29 17
56 30 33
56 31 16
56 32 15
56 33 33
56 34 24
56 35 28
56 36 33
56 37 29
56 38 31
56 39 23
56 40 40
56 41 40
56 42 24
56 43 38
56 44 24
56 45 29
56 46 10
56 47 36
56 48 31
56 49 38
56 50 14
56 51 29
56 52 17
56 53 11
56 54 36
56 55 25
57 0 7
57 1 7
57 2 26
57 3 32
57 4 32
57 5 36
57 6 30
57 7 10
57 8 38
57 9 21
57 10 30
57 11 38
57 12 25
57 13 20
57 14 15
57 15 28
57 16 33
57 17 36
57 18 29
57 19 37
57 20 10
57 21 39
57 22 37
57 23 21
57 24 31
57 25 25
57 26 3
57 27 13
57 28 22
57 29 23
57 30 1
57 31 18
57 32 19
57 33 19
57 34 40
57 35 11
57 36 18
57 37 25
57 38 6
57 39 18
57 40 10
57 41 14
57 42 3
57 43 38
57 44 1
57 45 24
57 46 37
57 47 20
57 48 13
57 49 31
57 50 19
57 51 28
57 52 10
57 53 26
57 54 10
57 55 30
57 56 22
58 0 36
58 1 25
58 2 12
58 3 19
58 4 28
58 5 30
58 6 12
58 7 8
58 8 12
58 9 13
58 10 25
58 11 11
58 12 25
58 13 24
58 14 26
58 15 22
58 16 11
58 17 19
58 18 21
58 19 9
58 20 13
58 21 16
58 22 16
58 23 16
58 24 5
58 25 7
58 26 4
58 27 36
58 28 30
58 29 14
58 30 34
58 31 14
58 32 31
58 33 13
58 34 5
58 35 36
58 36 30
58 37 32
58 38 33
58 39 2
58 40 13
58 41 34
58 42 1
58 43 8
58 44 1
58 45 32
58 46 16
58 47 10
58 48 3
58 49 4
58 50 34
58 51 9
58 52 33
58 53 4
58 54 33
58 55 27
58 56 21
58 57 8
59 0 31
59 1 18
59 2 29
59 3 11
59 4 9
59 5 35
59 6 21
59 7 18
59 8 30
59 9 33
59 10 6
59 11 2
59 12 31
59 13 35
59 14 32
59 15 19
59 16 29
59 17 22
59 18 1
59 19 1
59 20 19
59 21 24
59 22 19
59 23 29
59 24 27
59 25 24
59 26 7
59 27 20
59 28 15
59 29 14
59 30 30
59 31 22
59 32 19
59 33 36
59 34 34
59 35 21
59 36 20
59 37 2
59 38 2
59 39 32
59 40 29
59 41 1
59 42 36
59 43 14
59 44 5
59 45 11
59 46 33
59 47 29
59 48 1
59 49 22
59 50 6
59 51 36
59 52 34
59 53 10
59 54 7
59 55 23
59 56 15
59 57 1
59 58 21
60 0 28
60 1 39
60 2 28
60 3 39
60 4 23
60 5 9
60 6 20
60 7 9
60 8 30
60 9 25
60 10 20
60 11 31
60 12 16
60 13 15
60 14 32
60 15 25
60 16 4
60 17 11
60 18 14
60 19 18
60 20 8
60 21 24
60 22 8
60 23 17
60 24 3
60 25 40
60 26 40
60 27 9
60 28 38
60 29 9
60 30 2
60 31 13
60 32 11
60 33 1
60 34 29
60 35 35
60 36 23
60 37 13
60 38 21
60 39 2
60 40 19
60 41 4
60 42 13
60 43 3
60 44 9
60 45 35
60 46 21
60 47 35
60 48 37
60 49 9
60 50 10
60 51 30
60 52 13
60 53 22
60 54 30
60 55 19
60 56 30
60 57 40
60 58 16
60 59 1
61 0 35
61 1 19
61 2 26
61 3 16
61 4 34
61 5 24
61 6 37
61 7 33
61 8 20
61 9 29
61 10 36
61 11 27
61 12 23
61 13 5
61 14 28
61 15 7
61 16 29
61 17 23
61 18 20
61 19 3
61 20 12
61 21 24
61 22 38
61 23 6
61 24 38
61 25 23
61 26 16
61 27 29
61 28 20
61 29 27
61 30 19
61 31 19
61 32 28
61 33 20
61 34 39
61 35 7
61 36 28
61 37 21
61 38 36
61 39 1
61 40 23
61 41 38
61 42 33
61 43 33
61 44 6
61 45 26
61 46 24
61 47 20
61 48 25
61 49 39
61 50 15
61 51 35
61 52 12
61 53 39
61 54 33
61 55 17
61 56 5
61 57 7
61 58 1
61 59 19
61 60 32
62 0 29
62 1 11
62 2 11
62 3 33
62 4 40
62 5 38
62 6 31
62 7 20
62 8 24
62 9 38
62 10 25
62 11 40
62 12 19
62 13 18
62 14 31
62 15 1
62 16 28
62 17 15
62 18 29
62 19 18
62 20 40
62 21 40
62 22 7
62 23 4
62 24 38
62 25 11
62 26 39
62 27 23
62 28 31
62 29 30
62 30 8
62 31 30
62 32 40
62 33 25
62 34 37
62 35 16
62 36 6
62 37 38
62 38 8
62 39 38
62 40 30
62 41 31
62 42 1
62 43 21
62 44 28
62 45 23
62 46 17
62 47 18
62 48 18
62 49 18
62 50 39
62 51 11
62 52 4
62 53 38
62 54 16
62 55 32
62 56 11
62 57 20
62 58 36
62 59 21
62 60 34
62 61 27
63 0 22
63 1 27
63 2 19
63 3 28
63 4 37
63 5 32
63 6 30
63 7 18
63 8 20
63 9 17
63 10 5
63 11 8
63 12 34
63 13 7
63 14 10
63 15 9
63 16 20
63 17 31
63 18 13
63 19 38
63 20 40
63 21 12
63 22 18
63 23 10
63 24 21
63 25 38
63 26 3
63 27 2
63 28 7
63 29 9
63 30 5
63 31 18
63 32 26
63 33 34
63 34 25
63 35 31
63 36 1
63 37 20
63 38 14
63 39 27
63 40 38
63 41 23
63 42 13
63 43 29
63 44 9
63 45 37
63 46 40
63 47 14
63 48 29
63 49 4
63 50 10
63 51 18
63 52 9
63 53 24
63 54 2
63 55 40
63 56 13
63 57 12
63 58 38
63 59 22
63 60 33
63 61 29
63 62 30
64 0 39
64 1 4
64 2 6
64 3 14
64 4 33
64 5 8
64 6 23
64 7 19
64 8 10
64 9 4
64 10 5
64 11 22
64 12 7
64 13 35
64 14 10
64 15 14
64 16 21
64 17 39
64 18 37
64 19 29
64 20 20
64 21 3
64 22 29
64 23 38
64 24 3
64 25 21
64 26 16
64 27 8
64 28 10
64 29 4
64 30 18
64 31 16
64 32 4
64 33 12
64 34 25
64 35 13
64 36 7
64 37 40
64 38 18
64 39 27
64 40 37
64 41 3
64 42 16
64 43 28
64 44 19
64 45 12
64 46 38
64 47 12
64 48 19
64 49 16
64 50 33
64 51 4
64 52 14
64 53 38
64 54 13
64 55 12
64 56 27
64 57 35
64 58 10
64 59 36
64 60 34
64 61 22
64 62 34
64 63 18
65 0 9
65 1 18
65 2 8
65 3 2
65 4 7
65 5 24
65 6 19
65 7 32
65 8 6
65 9 24
65 10 40
65 11 22
65 12 8
65 13 38
65 14 23
65 15 27
65 16 37
65 17 25
65 18 2
65 19 23
65 20 24
65 21 23
65 22 37
65 23 26
65 24 6
65 25 17
65 26 40
65 27 4
65 28 40
65 29 12
65 30 5
65 31 5
65 32 37
65 33 34
65 34 17
65 35 1
65 36 33
65 37 38
65 38 25
65 39 4
65 40 29
65 41 12
65 42 20
65 43 38
65 44 12
65 45 14
65 46 14
65 47 8
65 48 2
65 49 32
65 50 10
65 51 20
65 52 35
65 53 38
65 54 16
65 55 39
65 56 21
65 57 23
65 58 23
65 59 38
65 60 2
65 61 3
65 62 33
65 63 30
65 64 28
66 0 38
66 1 39
66 2 37
66 3 21
66 4 37
66 5 9
66 6 15
66 7 22
66 8 29
66 9 4
66 10 39
66 11 26
66 12 11
66 13 24
66 14 27
66 15 11
66 16 39
66 17 4
66 18 16
66 19 18
66 20 26
66 21 33
66 22 37
66 23 5
66 24 13
66 25 13
66 26 38
66 27 27
66 28 18
66 29 20
66 30 28
66 31 23
66 32 20
66 33 15
66 34 29
66 35 24
66 36 24
66 37 19
66 38 4
66 39 6
66 40 20
66 41 12
66 42 1
66 43 35
66 44 36
66 45 20
66 46 9
66 47 35
66 48 40
66 49 37
66 50 10
66 51 36
66 52 38
66 53 40
66 54 36
66 55 17
66 56 14
66 57 31
66 58 39
66 59 20
66 60 40
66 61 17
66 62 31
66 63 31
66 64 34
66 65 29
67 0 36
67 1 2
67 2 10
67 3 6
67 4 28
67 5 19
67 6 27
67 7 17
67 8 40
67 9 32
67 10 37
67 11 33
67 12 14
67 13 26
67 14 34
67 15 17
67 16 22
67 17 31
67 18 38
67 19 5
67 20 13
67 21 19
67 22 6
67 23 4
67 24 21
67 25 33
67 26 16
67 27 7
67 28 11
67 29 12
67 30 36
67 31 10
67 32 22
67 33 7
67 34 24
67 35 13
67 36 21
67 37 18
67 38 24
67 39 19
67 40 20
67 41 13
67 42 34
67 43 16
67 44 4
67 45 24
67 46 31
67 47 11
67 48 22
67 49 12
67 50 31
67 51 20
67 52 25
67 53 29
67 54 15
67 55 37
67 56 33
67 57 8
67 58 26
67 59 14
67 60 2
67 61 29
67 62 16
67 63 39
67 64 23
67 65 9
67 66 37
68 0 38
68 1 10
68 2 27
68 3 12
68 4 25
68 5 38
68 6 36
68 7 36
68 8 37
68 9 11
68 10 19
68 11 12
68 12 33
68 13 13
68 14 38
68 15 28
68 16 6
68 17 23
68 18 23
68 19 28
68 20 38
68 21 40
68 22 8
68 23 6
68 24 5
68 25 33
68 26 31
68 27 5
68 28 18
68 29 32
68 30 2
68 31 12
68 32 22
68 33 29
68 34 1
68 35 23
68 36 40
68 37 32
68 38 10
68 39 20
68 40 23
68 41 21
68 42 23
68 43 25
68 44 28
68 45 40
68 46 5
68 47 12
68 48 21
68 49 13
68 50 5
68 51 9
68 52 24
68 53 13
68 54 36
68 55 38
68 56 3
68 57 11
68 58 38
68 59 34
68 60 13
68 61 6
68 62 32
68 63 23
68 64 34
68 65 17
68 66 16
68 67 3
69 0 10
69 1 21
69 2 4
69 3 4
69 4 26
69 5 22
69 6 14
69 7 22
69 8 21
69 9 35
69 10 34
69 11 24
69 12 3
69 13 25
69 14 28
69 15 22
69 16 26
69 17 6
69 18 30
69 19 33
69 20 26
69 21 6
69 22 10
69 23 30
69 24 3
69 25 33
69 26 22
69 27 32
69 28 19
69 29 17
69 30 14
69 31 22
69 32 9
69 33 40
69 34 28
69 35 23
69 36 10
69 37 10
69 38 39
69 39 31
69 40 20
69 41 22
69 42 16
69 43 14
69 44 39
69 45 36
69 46 26
69 47 35
69 48 38
69 49 13
69 50 1
69 51 20
69 52 40
69 53 21
69 54 31
69 55 14
69 56 24
69 57 18
69 58 38
69 59 5
69 60 22
69 61 23
69 62 26
69 63 40
69 64 24
69 65 22
69 66 22
69 67 11
69 68 35
